NAME: random-22-892
TYPE: TSP
COMMENT: size=22 seed=892
DIMENSION: 46
EDGE_WEIGHT_TYPE: EUC_2D
NODE_COORD_SECTION
+0 844 409
-0 844 409
+1 235 459
-1 721 741
+2 881 477
-2 206 619
+3 437 54
-3 995 292
+4 778 386
-4 6 731
+5 592 784
-5 753 681
+6 682 146
-6 254 775
+7 835 445
-7 160 479
+8 306 990
-8 88 712
+9 360 830
-9 520 57
+10 224 652
-10 888 575
+11 713 132
-11 115 689
+12 827 761
-12 991 854
+13 372 533
-13 816 324
+14 457 232
-14 43 538
+15 542 922
-15 88 660
+16 132 196
-16 145 176
+17 661 181
-17 254 778
+18 611 291
-18 196 230
+19 363 644
-19 787 259
+20 94 31
-20 10 634
+21 386 973
-21 228 759
+22 815 392
-22 120 85
PRECEDENCE_SECTION
+0 -0
+1 -1
+2 -2
+3 -3
+4 -4
+5 -5
+6 -6
+7 -7
+8 -8
+9 -9
+10 -10
+11 -11
+12 -12
+13 -13
+14 -14
+15 -15
+16 -16
+17 -17
+18 -18
+19 -19
+20 -20
+21 -21
+22 -22
EOF
